c File: data_files/evolved_graphs/g2945.col
c
c Auto generated graph
c
p edge 100 173
e 1 25
e 1 26
e 1 27
e 1 28
e 1 33
e 1 39
e 1 40
e 1 41
e 1 42
e 1 47
e 1 61
e 1 62
e 1 63
e 2 25
e 2 26
e 2 27
e 2 28
e 2 33
e 2 39
e 2 40
e 2 41
e 2 42
e 2 47
e 2 61
e 2 62
e 2 63
e 3 25
e 3 26
e 3 27
e 3 28
e 3 33
e 3 39
e 3 40
e 3 41
e 3 42
e 3 55
e 3 57
e 3 58
e 3 59
e 3 60
e 3 62
e 3 63
e 3 64
e 4 25
e 4 26
e 4 27
e 4 28
e 4 32
e 4 33
e 4 53
e 5 25
e 5 26
e 5 27
e 5 28
e 5 32
e 5 33
e 5 42
e 6 25
e 6 26
e 6 27
e 6 28
e 6 32
e 6 33
e 7 25
e 7 26
e 7 27
e 7 28
e 7 29
e 7 32
e 7 33
e 7 50
e 8 25
e 8 26
e 8 27
e 8 28
e 8 32
e 8 33
e 9 25
e 9 26
e 9 27
e 9 28
e 9 29
e 9 30
e 9 31
e 9 32
e 9 33
e 10 25
e 10 26
e 10 27
e 10 28
e 10 29
e 10 30
e 10 31
e 10 32
e 10 33
e 10 40
e 11 25
e 11 26
e 11 27
e 11 28
e 11 29
e 11 30
e 11 31
e 11 32
e 11 33
e 11 43
e 12 25
e 12 26
e 12 27
e 12 28
e 12 29
e 12 30
e 12 31
e 12 32
e 12 33
e 13 25
e 13 26
e 13 27
e 13 28
e 13 29
e 13 30
e 13 31
e 13 32
e 13 33
e 14 25
e 14 26
e 14 27
e 14 28
e 14 29
e 14 30
e 14 31
e 14 32
e 14 33
e 14 43
e 15 25
e 15 26
e 15 27
e 15 28
e 15 29
e 15 30
e 15 31
e 15 32
e 15 33
e 16 25
e 16 27
e 16 28
e 16 29
e 16 30
e 16 31
e 16 32
e 16 33
e 17 25
e 17 26
e 17 27
e 17 28
e 17 29
e 17 30
e 17 31
e 17 32
e 17 33
e 18 25
e 18 26
e 18 27
e 18 28
e 18 38
e 18 50
e 19 25
e 19 26
e 19 27
e 19 28
e 22 52
e 24 26
e 24 38
